objective value:                                   -7
t_n_5                                               1 	(obj:-1)
t_n_703                                             1 	(obj:-1)
t_n_797                                             1 	(obj:-1)
t_n_852                                             1 	(obj:-1)
t_n_918                                             1 	(obj:-1)
t_n_992                                             1 	(obj:-1)
t_n_996                                             1 	(obj:-1)
